
;this file is automatically generated: Thu Jan 02 16:54:47 GMT 2020

;declarations generated

(declare-fun oclExcludes ( Int Int) Bool)
(declare-fun Cardinality ( Int) Int)
(declare-fun oclSelect ( Int Bool) Int)
(declare-fun type_e6d824ee_423c_4ca5_9cbe_354e324b3af9_Class46 ( Int) Bool)
(declare-fun obj_edbe10c9_a886_46ed_adc4_01d2e1c6a5e1 ( Int) Int)
(declare-fun type_e6d824ee_423c_4ca5_9cbe_354e324b3af9_Class19 ( Int) Bool)
(declare-fun Enum0 ( Int) Int)
(declare-fun Enum1 ( Int) Int)
(declare-fun Enum2 ( Int) Int)
(declare-fun class5_Class5BoolAttr0 ( Int) Bool)
(declare-fun container_ ( Int) Int)
(declare-fun type_e6d824ee_423c_4ca5_9cbe_354e324b3af9_Class2 ( Int) Bool)
(declare-fun type_e6d824ee_423c_4ca5_9cbe_354e324b3af9_Class5 ( Int) Bool)
(declare-fun class5_Class5IntAttr3 ( Int) Int)
(declare-fun oclIncludes ( Int Int) Bool)
(declare-fun class5_Class5IntAttr4 ( Int) Int)
(declare-fun ObjAt ( Int Int) Int)

;formula(s) generated
(assert (! (forall ((c5_2 Int)(c5_1 Int)) (=> (and (and (and (and ( type_e6d824ee_423c_4ca5_9cbe_354e324b3af9_Class5 c5_1 )  ( type_e6d824ee_423c_4ca5_9cbe_354e324b3af9_Class46 c5_1 ) ) ( type_e6d824ee_423c_4ca5_9cbe_354e324b3af9_Class19 c5_1 ) ) ( type_e6d824ee_423c_4ca5_9cbe_354e324b3af9_Class2 c5_1 ) ) (and (and (and ( type_e6d824ee_423c_4ca5_9cbe_354e324b3af9_Class5 c5_2 )  ( type_e6d824ee_423c_4ca5_9cbe_354e324b3af9_Class46 c5_2 ) ) ( type_e6d824ee_423c_4ca5_9cbe_354e324b3af9_Class19 c5_2 ) ) ( type_e6d824ee_423c_4ca5_9cbe_354e324b3af9_Class2 c5_2 ) )) (or (<= ( class5_Class5IntAttr3 ( obj_edbe10c9_a886_46ed_adc4_01d2e1c6a5e1 c5_1 )  )  ( class5_Class5IntAttr4 ( obj_edbe10c9_a886_46ed_adc4_01d2e1c6a5e1 c5_2 )  ) ) (or (forall ((c5_2 Int)(c5_1 Int)) (=> (and (and (and (and ( type_e6d824ee_423c_4ca5_9cbe_354e324b3af9_Class5 c5_1 )  ( type_e6d824ee_423c_4ca5_9cbe_354e324b3af9_Class46 c5_1 ) ) ( type_e6d824ee_423c_4ca5_9cbe_354e324b3af9_Class19 c5_1 ) ) ( type_e6d824ee_423c_4ca5_9cbe_354e324b3af9_Class2 c5_1 ) ) (and (and (and ( type_e6d824ee_423c_4ca5_9cbe_354e324b3af9_Class5 c5_2 )  ( type_e6d824ee_423c_4ca5_9cbe_354e324b3af9_Class46 c5_2 ) ) ( type_e6d824ee_423c_4ca5_9cbe_354e324b3af9_Class19 c5_2 ) ) ( type_e6d824ee_423c_4ca5_9cbe_354e324b3af9_Class2 c5_2 ) )) (< ( class5_Class5IntAttr3 ( obj_edbe10c9_a886_46ed_adc4_01d2e1c6a5e1 c5_1 )  )  ( class5_Class5IntAttr4 ( obj_edbe10c9_a886_46ed_adc4_01d2e1c6a5e1 c5_2 )  ) ))) (forall ((v Int)) (=> (and (and (and ( type_e6d824ee_423c_4ca5_9cbe_354e324b3af9_Class5 v )  ( type_e6d824ee_423c_4ca5_9cbe_354e324b3af9_Class46 v ) ) ( type_e6d824ee_423c_4ca5_9cbe_354e324b3af9_Class19 v ) ) ( type_e6d824ee_423c_4ca5_9cbe_354e324b3af9_Class2 v ) ) (not ( class5_Class5BoolAttr0 ( obj_edbe10c9_a886_46ed_adc4_01d2e1c6a5e1 v )  )  ))))))):named l0))
(assert (! (forall ((c5_2 Int)(c5_1 Int)) (=> (and (and (and (and ( type_e6d824ee_423c_4ca5_9cbe_354e324b3af9_Class5 c5_1 )  ( type_e6d824ee_423c_4ca5_9cbe_354e324b3af9_Class46 c5_1 ) ) ( type_e6d824ee_423c_4ca5_9cbe_354e324b3af9_Class19 c5_1 ) ) ( type_e6d824ee_423c_4ca5_9cbe_354e324b3af9_Class2 c5_1 ) ) (and (and (and ( type_e6d824ee_423c_4ca5_9cbe_354e324b3af9_Class5 c5_2 )  ( type_e6d824ee_423c_4ca5_9cbe_354e324b3af9_Class46 c5_2 ) ) ( type_e6d824ee_423c_4ca5_9cbe_354e324b3af9_Class19 c5_2 ) ) ( type_e6d824ee_423c_4ca5_9cbe_354e324b3af9_Class2 c5_2 ) )) (= ( class5_Class5IntAttr3 ( obj_edbe10c9_a886_46ed_adc4_01d2e1c6a5e1 c5_1 )  )  ( class5_Class5IntAttr4 ( obj_edbe10c9_a886_46ed_adc4_01d2e1c6a5e1 c5_2 )  ) ))):named l1))
(assert (! (forall ((v Int)) (=> (and (and (and ( type_e6d824ee_423c_4ca5_9cbe_354e324b3af9_Class5 v )  ( type_e6d824ee_423c_4ca5_9cbe_354e324b3af9_Class46 v ) ) ( type_e6d824ee_423c_4ca5_9cbe_354e324b3af9_Class19 v ) ) ( type_e6d824ee_423c_4ca5_9cbe_354e324b3af9_Class2 v ) ) (>= ( class5_Class5IntAttr3 ( obj_edbe10c9_a886_46ed_adc4_01d2e1c6a5e1 v )  )  11))):named l2))
(assert (exists ((o Int)) (and (and (and ( type_e6d824ee_423c_4ca5_9cbe_354e324b3af9_Class5 ( obj_edbe10c9_a886_46ed_adc4_01d2e1c6a5e1 o )  )  ( type_e6d824ee_423c_4ca5_9cbe_354e324b3af9_Class46 ( obj_edbe10c9_a886_46ed_adc4_01d2e1c6a5e1 o )  ) ) ( type_e6d824ee_423c_4ca5_9cbe_354e324b3af9_Class19 ( obj_edbe10c9_a886_46ed_adc4_01d2e1c6a5e1 o )  ) ) ( type_e6d824ee_423c_4ca5_9cbe_354e324b3af9_Class2 ( obj_edbe10c9_a886_46ed_adc4_01d2e1c6a5e1 o )  ) )))

 ;end of formula 